Linux optc-02-15 4.15.0-58-generic #64-Ubuntu SMP Tue Aug 6 11:12:41 UTC 2019 x86_64 x86_64 x86_64 GNU/Linux

top - 20:33:45 up 1 day, 10:34,  0 users,  load average: 0,88, 0,95, 0,99
Tasks: 289 gesamt,   1 laufend, 149 schlafend,   0 gestoppt,   0 Zombie
%CPU(s):  7,5 be,  0,3 sy,  0,0 ni, 92,1 un,  0,0 wa,  0,0 hi,  0,0 si,  0,0 st
KiB Spch : 97514992 gesamt, 95381608 frei,   645812 belegt,  1487576 Puff/Cache
KiB Swap:  8388604 gesamt,  8388604 frei,        0 belegt. 96127888 verfü Spch 

  PID USER      PR  NI    VIRT    RES    SHR S  %CPU %MEM     ZEIT+ BEFEHL
    1 root      20   0  233876   9400   6672 S   0,0  0,0   0:11.30 systemd
    2 root      20   0       0      0      0 S   0,0  0,0   0:00.11 kthreadd
    4 root       0 -20       0      0      0 I   0,0  0,0   0:00.00 kworker/0:+
    6 root      20   0       0      0      0 I   0,0  0,0   0:00.00 kworker/u3+
    7 root       0 -20       0      0      0 I   0,0  0,0   0:00.00 mm_percpu_+
    8 root      20   0       0      0      0 S   0,0  0,0   0:00.03 ksoftirqd/0
    9 root      20   0       0      0      0 I   0,0  0,0   0:12.99 rcu_sched
   10 root      20   0       0      0      0 I   0,0  0,0   0:00.00 rcu_bh

hard time limit: 04:10:00
hard mem limit: 55100

SLURM jobID: 2182509

@01 /nfs/optimi/kombadon/IP/miplib2003/ds.mps.gz ===========
-----------------------------
Do 22. Aug 20:33:45 CEST 2019
-----------------------------
@03 1566498825
@05 7200
SCIP version 6.0.0 [precision: 8 byte] [memory: block] [mode: optimized] [LP solver: CPLEX 12.8.0.0] [GitHash: 41ab6e0014]
Copyright (C) 2002-2018 Konrad-Zuse-Zentrum fuer Informationstechnik Berlin (ZIB)

External codes: 
  Readline 7.0         GNU library for command line editing (gnu.org/s/readline)
  CPLEX 12.8.0.0       Linear Programming Solver developed by IBM (www.cplex.com)
  CppAD 20180000.0     Algorithmic Differentiation of C++ algorithms developed by B. Bell (www.coin-or.org/CppAD)
  ZLIB 1.2.11          General purpose compression library by J. Gailly and M. Adler (zlib.net)
  GMP 6.1.2            GNU Multiple Precision Arithmetic Library developed by T. Granlund (gmplib.org)
  bliss 0.73p          Computing Graph Automorphism Groups by T. Junttila and P. Kaski (http://www.tcs.hut.fi/Software/bliss/)

user parameter file <scip.set> not found - using default parameters

SCIP> 
SCIP> set load /home/optimi/bzfhende/opti/scip-opti/check/../settings/enable_treeeprofile.set
loaded parameter file </home/optimi/bzfhende/opti/scip-opti/check/../settings/enable_treeprofile.set>
SCIP> set misc referencevalue 9.3520000000e+01
misc/referencevalue = 93.52
SCIP> set limits time 7200
limits/time = 7200
SCIP> set limits nodes 2100000000
limits/nodes = 2100000000
SCIP> set limits memory 50000
limits/memory = 50000
SCIP> set lp advanced threads 1
lp/threads = 1
SCIP> set timing clocktype 1
timing/clocktype = 1
SCIP> set display freq 10000
display/freq = 10000
SCIP> set memory savefac 1.0
memory/savefac = 1
SCIP> set save /home/optimi/bzfhende/opti/scip-opti/check/treesize.estimation.jouurnal.3/bzfhende.MMMc.45_ds.scip.M640.enable_treeprofile.set
saved parameter file </home/optimi/bzfhende/opti/scip-opti/check/treesize.estimation.journal.3/bzfhende.MMMc.45_ds.scip.M640.enable_treeprofile.set>
SCIP> read /nfs/optimi/kombadon/IP/miplib2003/ds.mps.gz

read problem </nfs/optimi/kombadon/IP/miplib2003/ds.mps.gz>
============

original problem has 67732 variables (67732 bin, 0 int, 0 impl, 0 cont) and 656 constraints
SCIP> display parameters

number of parameters = 2448
non-default parameter settings:
display/freq = 10000
limits/time = 7200
limits/nodes = 2100000000
limits/memory = 50000
lp/threads = 1
memory/savefac = 1
misc/referencevalue = 93.52
presolving/maxrestarts = 0
estimates/profile/enabled = TRUE
estimates/profile/maxdepthfactor = 10
estimates/profile/freq = 0

SCIP> optimize

Activating tree profile data collection
presolving:
(round 1, exhaustive) 0 del vars, 0 del conss, 0 add conss, 0 chg bounds, 0 chg sides, 0 chg coeffs, 656 upgd conss, 0 impls, 656 clqs
(round 2, medium)     656 del vars, 0 del conss, 0 add conss, 0 chg bounds, 656 chg sides, 656 chg coeffs, 656 upgd conss, 0 impls, 654 clqs
(round 3, fast)       656 del vars, 2 del conss, 0 add conss, 0 chg bounds, 656 chg sides, 656 chg coeffs, 656 upgd conss, 0 impls, 654 clqs
(round 4, exhaustive) 656 del vars, 31 del conss, 0 add conss, 0 chg bounds, 656 chg sides, 656 chg coeffs, 656 upgd conss, 0 impls, 654 clqs
(round 5, exhaustive) 3701 del vars, 31 del conss, 0 add conss, 0 chg bounds, 656 chg sides, 656 chg coeffs, 656 upgd conss, 0 impls, 654 clqs
   (4.0s) probing: 51/64030 (0.1%) - 0 fixings, 0 aggregations, 0 implications, 0 bound changes
   (4.0s) probing aborted: 50/50 successive totally useless probings
presolving (6 rounds: 6 fast, 5 medium, 4 exhaustive):
 3702 deleted vars, 31 deleted constraints, 0 added constraints, 0 tightened bounds, 0 added holes, 656 changed sides, 656 changed coefficients
 0 implications, 654 cliques
presolved problem has 64030 variables (64030 bin, 0 int, 0 impl, 0 cont) and 625 constraints
    625 constraints of type <setppc>
transformed objective value is always integral (scale: 0.0025)
Presolving Time: 3.96

 time | node  | left  |LP iter|LP it/n| mem |mdpt |frac |vars |cons |cols |rows |cuts |confs|strbr|  dualbound   | primalbound  |  gap   
t 4.3s|     1 |     0 |     0 |     - | 516M|   0 |   - |  64k| 625 |   0 |   0 |   0 |   0 |   0 |-7.995354e+06 | 5.418560e+03 |    Inf 
Q 4.6s|     1 |     0 |     0 |     - | 580M|   0 |   - |  64k| 625 |  64k| 625 |   0 |   0 |   0 |-7.995354e+06 | 1.350767e+03 |    Inf 
 29.9s|     1 |     0 | 16708 |     - | 612M|   0 | 518 |  64k| 625 |  64k| 625 |   0 |   0 |   0 | 5.723457e+01 | 1.350767e+03 |2260.06%
 30.8s|     1 |     0 | 16812 |     - | 622M|   0 | 525 |  64k| 625 |  64k| 626 |   1 |   0 |   0 | 5.726393e+01 | 1.350767e+03 |2258.85%
 31.8s|     1 |     0 | 16910 |     - | 624M|   0 | 524 |  64k| 625 |  64k| 628 |   3 |   0 |   0 | 5.728937e+01 | 1.350767e+03 |2257.80%
 32.8s|     1 |     0 | 17054 |     - | 625M|   0 | 522 |  64k| 625 |  64k| 629 |   4 |   0 |   0 | 5.731655e+01 | 1.350767e+03 |2256.68%
 33.9s|     1 |     0 | 17474 |     - | 626M|   0 | 535 |  64k| 625 |  64k| 635 |  10 |   0 |   0 | 5.737625e+01 | 1.350767e+03 |2254.23%
 35.1s|     1 |     0 | 17825 |     - | 627M|   0 | 530 |  64k| 625 |  64k| 640 |  15 |   0 |   0 | 5.741114e+01 | 1.350767e+03 |2252.80%
 36.1s|     1 |     0 | 18035 |     - | 629M|   0 | 536 |  64k| 625 |  64k| 642 |  17 |   0 |   0 | 5.741781e+01 | 1.350767e+03 |2252.52%
 37.2s|     1 |     0 | 18124 |     - | 629M|   0 | 538 |  64k| 625 |  64k| 643 |  18 |   0 |   0 | 5.741912e+01 | 1.350767e+03 |2252.47%
 38.2s|     1 |     0 | 18239 |     - | 631M|   0 | 541 |  64k| 625 |  64k| 644 |  19 |   0 |   0 | 5.742157e+01 | 1.350767e+03 |2252.37%
 39.3s|     1 |     0 | 18393 |     - | 632M|   0 | 544 |  64k| 625 |  64k| 646 |  21 |   0 |   0 | 5.743390e+01 | 1.350767e+03 |2251.86%
 40.5s|     1 |     0 | 18601 |     - | 633M|   0 | 550 |  64k| 625 |  64k| 651 |  26 |   0 |   0 | 5.744193e+01 | 1.350767e+03 |2251.54%
 41.6s|     1 |     0 | 18754 |     - | 634M|   0 | 554 |  64k| 625 |  64k| 656 |  31 |   0 |   0 | 5.744459e+01 | 1.350767e+03 |2251.43%
u46.1s|     1 |     0 | 30999 |     - | 654M|   0 |   5 |  64k| 625 |  64k| 656 |   0 |   0 |   0 | 5.744459e+01 | 1.180725e+03 |1955.42%
 time | node  | left  |LP iter|LP it/n| mem |mdpt |frac |vars |cons |cols |rows |cuts |confs|strbr|  dualbound   | primalbound  |  gap   
u46.1s|     1 |     0 | 31011 |     - | 654M|   0 |   - |  64k| 625 |  64k| 656 |   0 |   0 |   0 | 5.744459e+01 | 9.694300e+02 |1587.59%
 59.5s|     1 |     0 | 31011 |     - | 657M|   0 | 554 |  64k| 625 |  64k| 656 |  31 |   0 |   0 | 5.744459e+01 | 9.694300e+02 |1587.59%
 60.6s|     1 |     0 | 31139 |     - | 661M|   0 | 557 |  64k| 625 |  64k| 658 |  33 |   0 |   0 | 5.744870e+01 | 9.694300e+02 |1587.47%
SCIP nodes: 1 Estimation: -1
 72.5s|     1 |     2 | 31139 |     - | 663M|   0 | 557 |  64k| 625 |  64k| 658 |  33 |   0 |  31 | 5.787958e+01 | 9.694300e+02 |1574.91%
   (73.1s) symmetry computation started: requiring (bin +, int -, cont -), (fixed: bin -, int +, cont -)
   (73.2s) no symmetry present
SCIP nodes: 2 Estimation: -1
SCIP nodes: 4 Estimation: -1
SCIP nodes: 8 Estimation: -1
c 126s|    14 |    15 | 50925 |2732.8 | 898M|  13 |   - |  64k| 625 |  64k| 665 |   0 |   0 | 226 | 5.787958e+01 | 8.849900e+02 |1429.02%
SCIP nodes: 16 Estimation: -1
p 138s|    26 |    27 | 75217 |2392.8 | 913M|  13 |   - |  64k| 625 |  64k| 664 |   0 |   0 | 242 | 5.789933e+01 | 7.505025e+02 |1196.22%
SCIP nodes: 32 Estimation: -1
f 146s|    38 |    39 | 89749 |2009.5 | 923M|  13 |   - |  64k| 625 |  64k| 667 |   0 |   0 | 242 | 5.789933e+01 | 7.311350e+02 |1162.77%
SCIP nodes: 64 Estimation: -1
o 215s|    73 |    74 |161959 |2035.6 | 947M|  15 |   0 |  64k| 625 |  64k| 666 |  62 |   0 | 275 | 5.798117e+01 | 4.190650e+02 | 622.76%
SCIP nodes: 128 Estimation: -1
p 484s|   245 |   242 |422074 |1666.7 | 983M|  29 |   - |  64k| 625 |  64k| 669 |   0 |   0 | 403 | 5.822653e+01 | 4.121650e+02 | 607.86%
SCIP nodes: 256 Estimation: -1
C 832s|   445 |   441 |849495 |1878.6 |1058M|  51 | 481 |  64k| 645 |  64k| 676 | 130 |  20 | 562 | 5.852454e+01 | 3.695200e+02 | 531.39%
SCIP nodes: 512 Estimation: -1
SCIP nodes: 1024 Estimation: 9.43244e+08
SCIP nodes: 2048 Estimation: 1.07823e+09
K4146s|  2973 |  2617 |  4047k|1356.8 |3570M|  90 | 510 |  64k|1361 |  64k| 678 | 286 |2021 |2436 | 5.933617e+01 | 3.402825e+02 | 473.48%
SCIP nodes: 4096 Estimation: 3.00148e+09
SCIP nodes: 8192 Estimation: 9.01512e+11
 5853s| 10000 |  5300 |  6632k| 661.8 |4465M| 282 |   - |  64k|1510 |  64k| 685 | 384 |2694 |4922 | 5.971835e+01 | 3.402825e+02 | 469.81%
SCIP nodes: 16384 Estimation: 2.31784e+44

SCIP Status        : solving was interrupted [time limit reached]
Solving Time (sec) : 7200.01
Solving Nodes      : 19453
Primal Bound       : +3.40282500000000e+02 (471 solutions)
Dual Bound         : +6.00531892958761e+01
Gap                : 466.64 %

SCIP> display statistics

SCIP Status        : solving was interrupted [time limit reached]
Total Time         :    7200.33
  solving          :    7200.01
  presolving       :       3.96 (included in solving)
  reading          :       0.32
  copying          :       3.59 (26 #copies) (minimal 0.12, maximal 0.22, average 0.14)
Original Problem   :
  Problem name     : ds
  Variables        : 67732 (67732 binary, 0 integer, 0 implicit integer, 0 continuous)
  Constraints      : 656 initial, 656 maximal
  Objective        : minimize, 67732 non-zeros (abs.min = 1.575, abs.max = 8.26)
Presolved Problem  :
  Problem name     : t_ds
  Variables        : 64030 (64030 binary, 0 integer, 0 implicit integer, 0 continuous)
  Constraints      : 625 initial, 1537 maximal
  Objective        : minimize, 64030 non-zeros (abs.min = 19109, abs.max = 75304)
Presolvers         :   ExecTime  SetupTime  Calls  FixedVars   AggrVars   ChgTypes  ChgBounds   AddHoles    DelCons    AddCons   ChgSides   ChgCoefs
  boundshift       :       0.00       0.00      0          0          0          0          0          0          0          0          0          0
  convertinttobin  :       0.00       0.00      0          0          0          0          0          0          0          0          0          0
  domcol           :       0.86       0.00      2       3046          0          0          0          0          0          0          0          0
  dualagg          :       0.00       0.00      0          0          0          0          0          0          0          0          0          0
  dualcomp         :       0.00       0.00      0          0          0          0          0          0          0          0          0          0
  dualinfer        :       0.00       0.00      0          0          0          0          0          0          0          0          0          0
  gateextraction   :       0.00       0.00      0          0          0          0          0          0          0          0          0          0
  implics          :       0.01       0.00      5          0          0          0          0          0          0          0          0          0
  inttobinary      :       0.00       0.00      0          0          0          0          0          0          0          0          0          0
  qpkktref         :       0.00       0.00      0          0          0          0          0          0          0          0          0          0
  redvub           :       0.00       0.00      0          0          0          0          0          0          0          0          0          0
  sparsify         :       0.08       0.00      1          0          0          0          0          0          0          0          0          0
  stuffing         :       0.00       0.00      0          0          0          0          0          0          0          0          0          0
  symbreak         :       0.00       0.00      0          0          0          0          0          0          0          0          0          0
  symmetry         :       0.00       0.00      0          0          0          0          0          0          0          0          0          0
  trivial          :       0.02       0.00      6          0          0          0          0          0          0          0          0          0
  tworowbnd        :       0.00       0.00      0          0          0          0          0          0          0          0          0          0
  dualfix          :       0.01       0.00      6          0          0          0          0          0          0          0          0          0
  genvbounds       :       0.00       0.00      0          0          0          0          0          0          0          0          0          0
  orbitalfixing    :       0.00       0.00      0          0          0          0          0          0          0          0          0          0
  probing          :       0.30       0.01      1          0          0          0          0          0          0          0          0          0
  pseudoobj        :       0.00       0.00      0          0          0          0          0          0          0          0          0          0
  vbounds          :       0.04       0.00      1          0          0          0          0          0          0          0          0          0
  setppc           :       1.77       0.01     12          0        656          0          0          0         31          0        656        656
  linear           :       0.45       0.12      2          0          0          0          0          0          0          0          0          0
  logicor          :       0.00       0.00      0          0          0          0          0          0          0          0          0          0
  benders          :       0.00       0.00      0          0          0          0          0          0          0          0          0          0
  components       :       0.11       0.00      1          0          0          0          0          0          0          0          0          0
  root node        :          -          -      -          0          -          -          0          -          -          -          -          -
Constraints        :     Number  MaxNumber  #Separate #Propagate    #EnfoLP    #EnfoRelax  #EnfoPS    #Check   #ResProp    Cutoffs    DomReds       Cuts    Applied      Conss   Children
  benderslp        :          0          0          0          0      13984          0          0       1280          0          0          0          0          0          0          0
  integral         :          0          0          0          0      13984          0          0       1280          0          0        726          0          0        855      27624
  setppc           :        625        625         12     177423          0          0          0       1275   21677569          0   18066323          0          0          0          0
  logicor          :          0+       912          0      16346          0          0          0          0        147         48         51          0          0          0          0
  benders          :          0          0          0          0          0          0          0        472          0          0          0          0          0          0          0
  countsols        :          0          0          0          0          0          0          0        472          0          0          0          0          0          0          0
  components       :          0          0          0          0          0          0          0          0          0          0          0          0          0          0          0
Constraint Timings :  TotalTime  SetupTime   Separate  Propagate     EnfoLP     EnfoPS     EnfoRelax   Check    ResProp    SB-Prop
  benderslp        :       0.00       0.00       0.00       0.00       0.00       0.00       0.00       0.00       0.00       0.00
  integral         :    1612.06       0.00       0.00       0.00    1611.45       0.00       0.00       0.61       0.00       0.00
  setppc           :     136.39       0.01       0.07      31.87       0.00       0.00       0.00       1.22      83.92      19.30
  logicor          :       0.46       0.00       0.00       0.27       0.00       0.00       0.00       0.00       0.00       0.19
  benders          :       0.00       0.00       0.00       0.00       0.00       0.00       0.00       0.00       0.00       0.00
  countsols        :       0.00       0.00       0.00       0.00       0.00       0.00       0.00       0.00       0.00       0.00
  components       :       0.06       0.00       0.00       0.06       0.00       0.00       0.00       0.00       0.00       0.00
Propagators        : #Propagate   #ResProp    Cutoffs    DomReds
  dualfix          :          3          0          0          0
  genvbounds       :          0          0          0          0
  nlobbt           :          0          0          0          0
  obbt             :          0          0          0          0
  orbitalfixing    :          1          0          0          0
  probing          :          0          0          0          0
  pseudoobj        :      53419          0          0          0
  redcost          :      23641          0          0    5488954
  rootredcost      :          8          0          0          0
  vbounds          :     191364          0          0          0
Propagator Timings :  TotalTime  SetupTime   Presolve  Propagate    ResProp    SB-Prop
  dualfix          :       0.02       0.00       0.01       0.01       0.00       0.00
  genvbounds       :       0.10       0.00       0.00       0.07       0.00       0.03
  nlobbt           :       0.00       0.00       0.00       0.00       0.00       0.00
  obbt             :       0.00       0.00       0.00       0.00       0.00       0.00
  orbitalfixing    :       0.19       0.00       0.00       0.18       0.00       0.01
  probing          :       0.31       0.01       0.30       0.00       0.00       0.00
  pseudoobj        :       0.17       0.00       0.00       0.17       0.00       0.00
  redcost          :      70.01       0.00       0.00      70.00       0.00       0.01
  rootredcost      :       0.16       0.00       0.00       0.13       0.00       0.03
  vbounds          :       0.31       0.00       0.04       0.23       0.00       0.04
Conflict Analysis  :       Time      Calls    Success    DomReds  Conflicts   Literals    Reconvs ReconvLits   Dualrays   Nonzeros   LP Iters   (pool size: [10000,10000])
  propagation      :       0.00         48          8          -          8       40.5          0        0.0          -          -          -
  infeasible LP    :       0.00          0          0          -          0        0.0          0        0.0          0        0.0          0
  bound exceed. LP :    1953.96       4107       1311          -      21787    10701.1          0        0.0          0        0.0      81034
  strong branching :       0.00          0          0          -          0        0.0          0        0.0          -          -          0
  pseudo solution  :       0.00          0          0          -          0        0.0          0        0.0          -          -          -
  applied globally :       8.77          -          -          0       3168     2727.8          -          -          0          -          -
  applied locally  :          -          -          -          0          0        0.0          -          -          0          -          -
Separators         :   ExecTime  SetupTime      Calls    Cutoffs    DomReds       Cuts    Applied      Conss
  cut pool         :       0.32                  1844          -          -        610          -          -    (maximal pool size: 164)
  aggregation      :       3.60       0.00        238          0          0          0          0          0
  cgmip            :       0.00       0.00          0          0          0          0          0          0
  clique           :       1.46       0.00         12          0          0          0         60          0
  closecuts        :       0.00       0.00          0          0          0          0          0          0
  cmir             :       0.00       0.00          0          0          0          0         29          0
  convexproj       :       0.00       0.00          0          0          0          0          0          0
  disjunctive      :       0.00       0.00          0          0          0          0          0          0
  eccuts           :       0.00       0.00          0          0          0          0          0          0
  flowcover        :       0.00       0.00          0          0          0          0          0          0
  gauge            :       0.00       0.00          0          0          0          0          0          0
  gomory           :      13.27       0.00        234          0          0          0         18          0
  impliedbounds    :       0.52       0.00        238          0          0          0          0          0
  intobj           :       0.00       0.00          0          0          0          0          0          0
  mcf              :       0.02       0.00          1          0          0          0          0          0
  oddcycle         :       0.00       0.00          0          0          0          0          0          0
  rapidlearning    :       0.00       0.00          0          0          0          0          0          0
  strongcg         :       0.73       0.00         17          0          0          0          0          0
  zerohalf         :     101.40       0.00        236          0          0          2        313          0
Pricers            :   ExecTime  SetupTime      Calls       Vars
  problem variables:       0.00          -          0          0
Branching Rules    :   ExecTime  SetupTime   BranchLP  BranchExt   BranchPS    Cutoffs    DomReds       Cuts      Conss   Children
  allfullstrong    :       0.00       0.00          0          0          0          0          0          0          0          0
  cloud            :       0.00       0.00          0          0          0          0          0          0          0          0
  distribution     :       0.00       0.00          0          0          0          0          0          0          0          0
  fullstrong       :       0.00       0.00          0          0          0          0          0          0          0          0
  inference        :       0.00       0.00          0          0          0          0          0          0          0          0
  leastinf         :       0.00       0.00          0          0          0          0          0          0          0          0
  lookahead        :       0.00       0.00          0          0          0          0          0          0          0          0
  mostinf          :       0.00       0.00          0          0          0          0          0          0          0          0
  multaggr         :       0.00       0.00          0          0          0          0          0          0          0          0
  nodereopt        :       0.00       0.00          0          0          0          0          0          0          0          0
  pscost           :       0.00       0.00          0          0          0          0          0          0          0          0
  random           :       0.00       0.00          0          0          0          0          0          0          0          0
  relpscost        :    1611.42       0.00      13984          0          0          0        726          0        872      27624
Primal Heuristics  :   ExecTime  SetupTime      Calls      Found       Best
  LP solutions     :       0.00          -          -          0          0
  relax solutions  :       0.00          -          -          0          0
  pseudo solutions :       0.00          -          -          0          0
  strong branching :      28.12          -          -         59          0
  actconsdiving    :       0.00       0.00          0          0          0
  alns             :     136.18       0.00          5          0          0
  bound            :       0.00       0.00          0          0          0
  clique           :       0.39       0.00          1          1          1
  coefdiving       :     180.71       0.00         31          4          1
  completesol      :       0.00       0.00          0          0          0
  conflictdiving   :       0.00       0.00          0          0          0
  crossover        :       3.47       0.00         10          3          1
  dins             :       0.00       0.00          0          0          0
  distributiondivin:      44.32       0.00         31          2          0
  dualval          :       0.00       0.00          0          0          0
  farkasdiving     :    1067.13       0.00         31         44          2
  feaspump         :       0.00       0.00          0          0          0
  fixandinfer      :       0.00       0.00          0          0          0
  fracdiving       :     493.57       0.00         31          5          1
  gins             :     192.71       0.00          1          1          1
  guideddiving     :      56.81       0.00         30          0          0
  indicator        :       0.01       0.00          0          0          0
  intdiving        :       0.00       0.00          0          0          0
  intshifting      :       0.00       0.00          0          0          0
  linesearchdiving :     150.74       0.00         30          1          0
  localbranching   :       0.00       0.00          0          0          0
  locks            :       7.25       0.00          1          0          0
  lpface           :       0.03       0.00          0          0          0
  mpec             :       0.00       0.00          0          0          0
  multistart       :       0.00       0.00          0          0          0
  mutation         :       0.00       0.00          0          0          0
  nlpdiving        :       0.00       0.00          0          0          0
  objpscostdiving  :     310.02       0.00         16        148          1
  octane           :       0.00       0.00          0          0          0
  ofins            :       0.00       0.00          0          0          0
  oneopt           :       0.39       0.00          9          0          0
  proximity        :       0.00       0.00          0          0          0
  pscostdiving     :      75.86       0.00         31         30          2
  randrounding     :       2.50       0.00        841         14          0
  rens             :       6.40       0.00          1          1          0
  reoptsols        :       0.00       0.00          0          0          0
  repair           :       0.00       0.00          0          0          0
  rins             :       7.37       0.00          9          8          0
  rootsoldiving    :      71.68       0.00         16         48          0
  rounding         :       4.12       0.00       1629          0          0
  shiftandpropagate:       0.00       0.00          0          0          0
  shifting         :       1.66       0.00        542          0          0
  simplerounding   :      16.67       0.00      14284         37          0
  subnlp           :       0.02       0.00          0          0          0
  trivial          :       0.09       0.00          2          1          1
  trivialnegation  :       0.00       0.00          0          0          0
  trysol           :       0.04       0.00          0          0          0
  twoopt           :       0.00       0.00          0          0          0
  undercover       :       0.00       0.00          0          0          0
  vbounds          :      10.99       0.00          1          1          0
  veclendiving     :      54.39       0.00         30          0          0
  zeroobj          :       0.00       0.00          0          0          0
  zirounding       :       2.27       0.00       3151         63          0
  other solutions  :          -          -          -          0          -
Diving Statistics  :      Calls      Nodes   LP Iters Backtracks  Conflicts   MinDepth   MaxDepth   AvgDepth  RoundSols  NLeafSols  MinSolDpt  MaxSolDpt  AvgSolDpt
  actconsdiving    :          0          -          -          -          -          -          -          -          -          -          -          -          -
  coefdiving       :         31        978     140538        272       1694         29        292       89.6          3          1         29         29       29.0
  conflictdiving   :          0          -          -          -          -          -          -          -          -          -          -          -          -
  distributiondivin:         31       4337      63589         14        257         61        763      206.4          2          -          -          -          -
  farkasdiving     :         31       3829     236891       1823       6967         20        264      129.1         43          1         20         20       20.0
  fracdiving       :         31       2099     283024        853       1923         28        297      107.2          4          1         28         28       28.0
  guideddiving     :         30      14092      64893          0         55        240       1227      532.8          0          -          -          -          -
  linesearchdiving :         30       5086      64450        266       4658         57        522      225.5          1          -          -          -          -
  pscostdiving     :         31        478     117186         45        367         25        277       77.6         28          2         35         56       45.5
  veclendiving     :         30      13501      57793          0        105        305       1063      510.7          0          -          -          -          -
Neighborhoods      :      Calls  SetupTime  SolveTime SolveNodes       Sols       Best       Exp3  EpsGreedy        UCB TgtFixRate  Opt  Inf Node Stal  Sol  Usr Othr Actv
  rens             :          1       0.26       6.60         57          0          0    0.00000   -1.00000    1.00000      0.900    0    0    0    1    0    0    0    1
  rins             :          0       0.00       0.00          0          0          0    0.00000   -1.00000    1.00000      0.900    0    0    0    0    0    0    0    1
  mutation         :          0       0.00       0.00          0          0          0    0.00000   -1.00000    1.00000      0.900    0    0    0    0    0    0    0    1
  localbranching   :          1       0.19       8.46         50          0          0    0.00000   -1.00000    1.00000      0.900    0    0    0    1    0    0    0    1
  crossover        :          1       0.25       6.67         55          0          0    0.00000   -1.00000    1.00000      0.900    0    0    0    1    0    0    0    1
  proximity        :          0       0.00       0.00          0          0          0    0.00000   -1.00000    1.00000      0.900    0    0    0    0    0    0    0    1
  zeroobjective    :          1       0.23      89.35         50          0          0    0.00000   -1.00000    1.00000      0.900    0    0    0    1    0    0    0    1
  dins             :          1       0.25      23.54         78          0          0    0.00000   -1.00000    1.00000      0.900    0    0    0    1    0    0    0    1
LP                 :       Time      Calls Iterations  Iter/call   Iter/sec  Time-0-It Calls-0-It    ItLimit
  primal LP        :      63.79        145          0       0.00       0.00      63.79        145
  dual LP          :    2272.48      26770    7469490     374.92    3286.93      47.34       6847
  lex dual LP      :       0.00          0          0       0.00          -
  barrier LP       :       0.00          0          0       0.00          -       0.00          0
  resolve instable :       0.00          0          0       0.00          -
  diving/probing LP:     712.70       6432    1393392     216.63    1955.09
  strong branching :    1206.42       7375    3856047     522.85    3196.27          -          -       5654
    (at root node) :          -         31      20219     652.23          -
  conflict analysis:     123.81       8105      81034      10.00     654.50
B&B Tree           :
  number of runs   :          1
  nodes            :      19453 (13812 internal, 5641 leaves)
  feasible leaves  :          0
  infeas. leaves   :          1
  objective leaves :       5640
  nodes (total)    :      19453 (13812 internal, 5641 leaves)
  nodes left       :       8033
  max depth        :        338
  max depth (total):        338
  backtracks       :        938 (4.8%)
  early backtracks :          0 (0.0%)
  nodes exc. ref.  :      16656 (85.6%)
  delayed cutoffs  :          0
  repropagations   :         55 (75 domain reductions, 0 cutoffs)
  avg switch length:       3.53
  switching time   :      86.37
Root Node          :
  First LP value   : +5.72345652594394e+01
  First LP Iters   :      13224 (1905.48 Iter/sec)
  First LP Time    :       6.94
  Final Dual Bound : +5.78795841037959e+01
  Final Root Iters :      15398
  Root LP Estimate : +9.42738714097266e+01
Solution           :
  Solutions found  :        471 (11 improvements)
  First Solution   : +5.41856000000000e+03   (in run 1, after 1 nodes, 4.23 seconds, depth 0, found by <trivial>)
  Gap First Sol.   :   infinite
  Gap Last Sol.    :     473.48 %
  Primal Bound     : +3.40282500000000e+02   (in run 1, after 2973 nodes, 4145.98 seconds, depth 36, found by <gins>)
  Dual Bound       : +6.00531892958761e+01
  Gap              :     466.64 %
  Avg. Gap         :      83.84 % (603614.67 primal-dual integral)
  Tree Data        : 27625 nodes (19592 visited, 13812 inner, 5780 leaves, 8033 open), progress: 0.0041
Tree Estimation    :       estim       value       trend  resolution      smooth
  wbe              :     2832752           -           -           -           -
  tree profile     : 240192130985301264530593232497074955322654720           -           -           -           -
  gap              :       39184     0.17648     0.00000           8       39147
  progress         :       39184     0.00408     0.00000           8       39147
  leaf-frequency   :      225941     0.29504     0.00002           8      223280
  ssg              :       39184     0.98536    -0.00000           8       39147
  open-nodes       :       39184  8030.00000     4.47359           8       39147


SCIP> checksol

check best solution
solution is feasible in original problem
Violation          :    absolute    relative
  bounds           : 2.22045e-16 2.22045e-16
  integrality      : 2.22045e-16           -
  LP rows          : 0.00000e+00 0.00000e+00
  constraints      : 0.00000e+00 0.00000e+00

SCIP> write sol /local/tmp/bzfhende-tmpdir/bzfhende.MMMc.45_ds.scip.M640.enable_ttreeprofile.sol

written solution information to file </local/tmp/bzfhende-tmpdir/bzfhende.MMMc.45_ds.scip.M640.enable_treeprofile.sol>

SCIP> quit

Disabling tree profile data collection
Read MPS: 1
MIP has 67732 vars and 656 constraints
Read SOL: 1
Objective value computed by solver: 340.2825

Integrality tolerance: 1/10000
Linear tolerance: 1/10000
Objective tolerance: 1/10000

Check SOL: Integrality 1 Constraints 1 Objective 1
Maximum violations: Integrality 0 Constraints 0 Objective 0
@04 1566506058
-----------------------------
Do 22. Aug 22:34:18 CEST 2019
-----------------------------

=ready=
